-432.0 5.0 7.0 9.0 10.0 5.0 3.0 2.0 10.0 1.0 6.0 1.0 1.0 3.0 3.0 2.0 10.0 3.0 0.0 5.0 5.0 9.0 2.0 4.0 10.0 0.0 5.0 2.0 7.0 4.0 7.0 6.0 0.0 1.0 4.0 10.0 9.0 8.0 5.0 0.0 1.0 10.0 7.0 1.0 4.0 3.0 4.0 6.0 10.0 1.0 2.0 5.0 3.0 2.0 7.0 1.0 4.0 2.0 10.0 6.0 0.0 0.0 2.0 6.0 3.0 0.0 0.0 6.0 6.0 0.0 10.0 9.0 1.0 8.0 6.0 6.0 5.0 7.0 2.0 8.0 4.0 5.0 8.0 3.0 9.0 5.0 8.0 10.0 6.0 7.0 2.0 7.0 
5.0 -445.0 4.0 5.0 7.0 4.0 1.0 3.0 1.0 2.0 4.0 5.0 5.0 4.0 9.0 5.0 4.0 5.0 2.0 6.0 2.0 5.0 4.0 2.0 8.0 10.0 4.0 3.0 9.0 2.0 1.0 2.0 8.0 4.0 10.0 8.0 5.0 7.0 5.0 4.0 1.0 10.0 4.0 7.0 8.0 9.0 9.0 7.0 7.0 6.0 3.0 2.0 1.0 10.0 10.0 9.0 10.0 7.0 4.0 10.0 2.0 7.0 1.0 8.0 7.0 5.0 4.0 3.0 8.0 7.0 6.0 1.0 8.0 5.0 5.0 7.0 4.0 9.0 2.0 4.0 9.0 7.0 8.0 0.0 0.0 0.0 0.0 0.0 0.0 0.0 0.0 0.0 
7.0 4.0 -487.0 9.0 3.0 1.0 0.0 9.0 1.0 2.0 7.0 5.0 8.0 6.0 9.0 1.0 7.0 2.0 9.0 10.0 9.0 7.0 7.0 9.0 3.0 3.0 0.0 3.0 7.0 0.0 10.0 6.0 5.0 3.0 10.0 1.0 4.0 9.0 7.0 9.0 9.0 8.0 10.0 1.0 7.0 1.0 10.0 3.0 4.0 9.0 0.0 7.0 2.0 3.0 3.0 2.0 7.0 4.0 5.0 1.0 3.0 8.0 9.0 9.0 3.0 6.0 5.0 6.0 10.0 8.0 3.0 10.0 3.0 4.0 7.0 9.0 9.0 0.0 10.0 7.0 3.0 3.0 0.0 1.0 1.0 7.0 3.0 6.0 4.0 9.0 4.0 9.0 
9.0 5.0 9.0 -449.0 0.0 0.0 0.0 4.0 2.0 9.0 0.0 9.0 6.0 4.0 6.0 8.0 7.0 2.0 10.0 6.0 4.0 4.0 1.0 6.0 4.0 6.0 5.0 3.0 2.0 4.0 1.0 6.0 8.0 9.0 7.0 7.0 3.0 4.0 2.0 0.0 3.0 9.0 10.0 9.0 0.0 6.0 10.0 0.0 6.0 0.0 6.0 1.0 10.0 5.0 6.0 2.0 5.0 2.0 7.0 8.0 8.0 0.0 5.0 8.0 6.0 5.0 8.0 3.0 6.0 0.0 2.0 4.0 6.0 3.0 2.0 6.0 6.0 6.0 9.0 7.0 6.0 10.0 4.0 10.0 5.0 0.0 0.0 5.0 4.0 2.0 8.0 8.0 
10.0 7.0 3.0 0.0 -528.0 3.0 2.0 0.0 9.0 5.0 1.0 3.0 8.0 6.0 6.0 0.0 6.0 8.0 7.0 9.0 0.0 4.0 9.0 2.0 6.0 2.0 8.0 10.0 8.0 4.0 8.0 7.0 9.0 7.0 0.0 3.0 6.0 10.0 0.0 4.0 0.0 10.0 7.0 3.0 3.0 7.0 5.0 9.0 4.0 9.0 4.0 10.0 8.0 3.0 10.0 9.0 9.0 5.0 3.0 7.0 8.0 10.0 3.0 10.0 8.0 5.0 9.0 9.0 8.0 8.0 6.0 2.0 8.0 8.0 7.0 4.0 6.0 1.0 4.0 5.0 3.0 9.0 9.0 6.0 8.0 10.0 7.0 3.0 3.0 2.0 6.0 8.0 
5.0 4.0 1.0 0.0 3.0 -474.0 5.0 0.0 6.0 10.0 8.0 4.0 9.0 2.0 3.0 7.0 4.0 8.0 9.0 9.0 0.0 7.0 10.0 4.0 9.0 0.0 7.0 10.0 2.0 4.0 9.0 0.0 3.0 6.0 7.0 6.0 0.0 6.0 6.0 4.0 9.0 7.0 6.0 10.0 5.0 2.0 0.0 6.0 9.0 6.0 2.0 9.0 4.0 6.0 8.0 6.0 1.0 0.0 8.0 2.0 7.0 7.0 2.0 9.0 0.0 5.0 9.0 6.0 8.0 2.0 1.0 5.0 3.0 6.0 6.0 10.0 9.0 1.0 3.0 5.0 3.0 5.0 9.0 9.0 6.0 10.0 0.0 1.0 8.0 8.0 3.0 5.0 
3.0 1.0 0.0 0.0 2.0 5.0 -432.0 7.0 3.0 6.0 4.0 3.0 0.0 8.0 3.0 6.0 6.0 1.0 9.0 6.0 2.0 8.0 2.0 0.0 7.0 5.0 1.0 0.0 3.0 1.0 9.0 0.0 6.0 0.0 10.0 3.0 6.0 9.0 0.0 8.0 2.0 7.0 2.0 6.0 10.0 0.0 8.0 8.0 6.0 5.0 3.0 10.0 4.0 4.0 5.0 9.0 9.0 2.0 9.0 10.0 0.0 3.0 6.0 7.0 0.0 9.0 2.0 10.0 2.0 3.0 3.0 9.0 7.0 9.0 0.0 7.0 9.0 2.0 4.0 7.0 3.0 5.0 8.0 3.0 8.0 2.0 3.0 3.0 4.0 7.0 9.0 6.0 
2.0 3.0 9.0 4.0 0.0 0.0 7.0 -415.0 2.0 6.0 5.0 5.0 0.0 0.0 7.0 2.0 4.0 7.0 1.0 4.0 4.0 0.0 0.0 5.0 4.0 1.0 10.0 8.0 1.0 2.0 7.0 10.0 7.0 6.0 8.0 2.0 3.0 7.0 6.0 4.0 1.0 3.0 0.0 5.0 10.0 4.0 0.0 0.0 9.0 2.0 4.0 1.0 0.0 7.0 5.0 8.0 1.0 7.0 2.0 2.0 4.0 10.0 1.0 2.0 0.0 7.0 0.0 8.0 10.0 7.0 4.0 5.0 5.0 10.0 9.0 8.0 4.0 2.0 4.0 3.0 10.0 3.0 6.0 10.0 7.0 9.0 6.0 1.0 9.0 5.0 6.0 6.0 
10.0 1.0 1.0 2.0 9.0 6.0 3.0 2.0 -467.0 2.0 2.0 1.0 2.0 4.0 10.0 2.0 1.0 7.0 1.0 7.0 10.0 10.0 4.0 2.0 8.0 8.0 10.0 2.0 10.0 3.0 3.0 10.0 1.0 8.0 1.0 0.0 2.0 1.0 2.0 8.0 4.0 10.0 2.0 3.0 8.0 5.0 0.0 8.0 2.0 3.0 1.0 7.0 10.0 5.0 3.0 4.0 5.0 4.0 3.0 0.0 5.0 6.0 3.0 6.0 4.0 9.0 2.0 9.0 8.0 7.0 10.0 6.0 8.0 5.0 1.0 7.0 6.0 3.0 10.0 5.0 4.0 9.0 3.0 5.0 8.0 10.0 8.0 9.0 10.0 7.0 9.0 2.0 
1.0 2.0 2.0 9.0 5.0 10.0 6.0 6.0 2.0 -428.0 8.0 0.0 9.0 2.0 7.0 9.0 8.0 3.0 1.0 0.0 3.0 3.0 1.0 0.0 5.0 3.0 1.0 10.0 0.0 0.0 10.0 2.0 0.0 5.0 8.0 0.0 7.0 8.0 7.0 1.0 3.0 1.0 5.0 3.0 8.0 6.0 8.0 1.0 9.0 7.0 3.0 6.0 1.0 5.0 6.0 7.0 2.0 4.0 2.0 8.0 9.0 4.0 0.0 1.0 0.0 6.0 3.0 3.0 4.0 5.0 8.0 6.0 9.0 4.0 9.0 2.0 10.0 3.0 0.0 5.0 10.0 6.0 10.0 2.0 3.0 3.0 10.0 6.0 6.0 9.0 7.0 6.0 
6.0 4.0 7.0 0.0 1.0 8.0 4.0 5.0 2.0 8.0 -465.0 3.0 2.0 8.0 2.0 7.0 1.0 8.0 8.0 0.0 7.0 8.0 7.0 6.0 10.0 8.0 9.0 0.0 6.0 2.0 2.0 8.0 1.0 4.0 2.0 4.0 6.0 10.0 2.0 3.0 0.0 0.0 6.0 9.0 0.0 8.0 6.0 6.0 9.0 6.0 7.0 8.0 7.0 5.0 10.0 10.0 3.0 8.0 0.0 8.0 4.0 2.0 5.0 10.0 6.0 4.0 1.0 3.0 6.0 10.0 1.0 10.0 5.0 6.0 2.0 2.0 10.0 8.0 4.0 0.0 8.0 10.0 7.0 0.0 8.0 6.0 1.0 2.0 8.0 9.0 1.0 1.0 
1.0 5.0 5.0 9.0 3.0 4.0 3.0 5.0 1.0 0.0 3.0 -445.0 8.0 7.0 8.0 4.0 5.0 6.0 4.0 7.0 10.0 2.0 5.0 8.0 0.0 6.0 1.0 3.0 8.0 5.0 9.0 6.0 5.0 7.0 9.0 5.0 7.0 3.0 5.0 7.0 2.0 0.0 7.0 8.0 5.0 2.0 4.0 9.0 1.0 6.0 0.0 3.0 9.0 9.0 0.0 3.0 7.0 5.0 8.0 6.0 4.0 9.0 6.0 1.0 6.0 1.0 7.0 6.0 7.0 2.0 2.0 2.0 1.0 6.0 9.0 8.0 2.0 1.0 5.0 6.0 0.0 8.0 1.0 3.0 5.0 9.0 3.0 10.0 3.0 4.0 8.0 7.0 
1.0 5.0 8.0 6.0 8.0 9.0 0.0 0.0 2.0 9.0 2.0 8.0 -437.0 9.0 2.0 8.0 3.0 0.0 5.0 0.0 3.0 8.0 1.0 4.0 10.0 3.0 4.0 3.0 5.0 1.0 1.0 6.0 3.0 9.0 3.0 1.0 6.0 10.0 0.0 6.0 3.0 6.0 3.0 5.0 1.0 6.0 6.0 10.0 5.0 9.0 8.0 7.0 8.0 3.0 8.0 6.0 2.0 9.0 4.0 10.0 7.0 0.0 7.0 1.0 10.0 0.0 10.0 8.0 5.0 10.0 3.0 9.0 1.0 7.0 4.0 8.0 3.0 1.0 7.0 0.0 0.0 1.0 4.0 9.0 6.0 1.0 7.0 2.0 6.0 7.0 1.0 1.0 
3.0 4.0 6.0 4.0 6.0 2.0 8.0 0.0 4.0 2.0 8.0 7.0 9.0 -481.0 0.0 2.0 8.0 8.0 3.0 1.0 10.0 6.0 10.0 6.0 7.0 7.0 4.0 6.0 1.0 6.0 10.0 1.0 3.0 9.0 6.0 8.0 2.0 8.0 1.0 2.0 2.0 4.0 9.0 9.0 9.0 0.0 5.0 0.0 5.0 7.0 5.0 8.0 8.0 9.0 8.0 1.0 3.0 4.0 4.0 1.0 6.0 8.0 10.0 8.0 3.0 6.0 7.0 2.0 0.0 3.0 10.0 5.0 6.0 8.0 2.0 1.0 3.0 8.0 8.0 10.0 8.0 3.0 1.0 5.0 0.0 7.0 7.0 10.0 5.0 10.0 8.0 4.0 
3.0 9.0 9.0 6.0 6.0 3.0 3.0 7.0 10.0 7.0 2.0 8.0 2.0 0.0 -442.0 5.0 3.0 2.0 8.0 1.0 3.0 0.0 1.0 0.0 1.0 9.0 0.0 8.0 7.0 4.0 7.0 0.0 5.0 1.0 6.0 4.0 5.0 8.0 0.0 4.0 9.0 10.0 1.0 1.0 2.0 9.0 0.0 4.0 7.0 10.0 9.0 3.0 8.0 8.0 4.0 1.0 7.0 9.0 8.0 7.0 9.0 8.0 1.0 0.0 1.0 8.0 6.0 2.0 4.0 6.0 2.0 0.0 8.0 3.0 9.0 4.0 7.0 10.0 2.0 4.0 1.0 8.0 2.0 10.0 4.0 7.0 6.0 8.0 1.0 1.0 8.0 8.0 
2.0 5.0 1.0 8.0 0.0 7.0 6.0 2.0 2.0 9.0 7.0 4.0 8.0 2.0 5.0 -441.0 7.0 9.0 4.0 6.0 1.0 2.0 7.0 8.0 0.0 0.0 6.0 8.0 7.0 10.0 5.0 8.0 6.0 9.0 1.0 10.0 3.0 3.0 4.0 9.0 0.0 1.0 5.0 3.0 9.0 8.0 1.0 6.0 8.0 1.0 5.0 9.0 0.0 2.0 7.0 2.0 0.0 3.0 4.0 3.0 8.0 4.0 5.0 9.0 9.0 4.0 1.0 2.0 5.0 9.0 9.0 1.0 9.0 0.0 8.0 2.0 6.0 0.0 1.0 1.0 9.0 10.0 7.0 0.0 4.0 6.0 4.0 6.0 10.0 7.0 4.0 3.0 
10.0 4.0 7.0 7.0 6.0 4.0 6.0 4.0 1.0 8.0 1.0 5.0 3.0 8.0 3.0 7.0 -501.0 2.0 7.0 10.0 1.0 0.0 1.0 2.0 10.0 7.0 2.0 10.0 3.0 8.0 1.0 10.0 9.0 6.0 1.0 7.0 5.0 6.0 9.0 9.0 5.0 3.0 1.0 7.0 0.0 8.0 1.0 8.0 9.0 6.0 8.0 8.0 7.0 5.0 7.0 4.0 5.0 3.0 6.0 2.0 1.0 4.0 9.0 3.0 5.0 4.0 4.0 4.0 8.0 10.0 1.0 7.0 10.0 8.0 7.0 10.0 9.0 4.0 9.0 0.0 0.0 9.0 9.0 0.0 10.0 1.0 9.0 6.0 6.0 10.0 1.0 10.0 
3.0 5.0 2.0 2.0 8.0 8.0 1.0 7.0 7.0 3.0 8.0 6.0 0.0 8.0 2.0 9.0 2.0 -481.0 0.0 1.0 1.0 10.0 2.0 10.0 4.0 7.0 7.0 6.0 8.0 6.0 0.0 6.0 6.0 7.0 4.0 8.0 5.0 2.0 9.0 0.0 1.0 6.0 4.0 7.0 1.0 9.0 1.0 0.0 4.0 4.0 9.0 8.0 4.0 8.0 3.0 6.0 10.0 8.0 8.0 5.0 5.0 2.0 0.0 10.0 1.0 9.0 10.0 10.0 7.0 7.0 6.0 4.0 3.0 3.0 0.0 3.0 10.0 10.0 2.0 3.0 6.0 10.0 9.0 10.0 5.0 3.0 2.0 10.0 6.0 5.0 10.0 4.0 
0.0 2.0 9.0 10.0 7.0 9.0 9.0 1.0 1.0 1.0 8.0 4.0 5.0 3.0 8.0 4.0 7.0 0.0 -422.0 9.0 2.0 6.0 5.0 7.0 7.0 8.0 6.0 1.0 8.0 6.0 7.0 10.0 0.0 2.0 8.0 0.0 6.0 3.0 5.0 0.0 10.0 6.0 1.0 0.0 8.0 6.0 10.0 8.0 0.0 1.0 2.0 3.0 3.0 1.0 7.0 8.0 0.0 10.0 10.0 5.0 1.0 8.0 1.0 8.0 3.0 8.0 2.0 6.0 6.0 1.0 5.0 6.0 2.0 3.0 0.0 7.0 3.0 3.0 9.0 6.0 1.0 7.0 5.0 4.0 0.0 4.0 3.0 5.0 0.0 9.0 2.0 1.0 
5.0 6.0 10.0 6.0 9.0 9.0 6.0 4.0 7.0 0.0 0.0 7.0 0.0 1.0 1.0 6.0 10.0 1.0 9.0 -455.0 3.0 10.0 8.0 10.0 4.0 0.0 9.0 6.0 2.0 3.0 9.0 6.0 8.0 2.0 2.0 9.0 0.0 9.0 5.0 2.0 2.0 3.0 10.0 3.0 2.0 1.0 8.0 5.0 1.0 2.0 6.0 7.0 9.0 6.0 9.0 1.0 9.0 6.0 0.0 6.0 2.0 6.0 7.0 4.0 2.0 9.0 10.0 0.0 3.0 10.0 9.0 1.0 3.0 4.0 10.0 8.0 3.0 3.0 9.0 0.0 10.0 3.0 1.0 0.0 8.0 4.0 1.0 3.0 5.0 7.0 7.0 3.0 
5.0 2.0 9.0 4.0 0.0 0.0 2.0 4.0 10.0 3.0 7.0 10.0 3.0 10.0 3.0 1.0 1.0 1.0 2.0 3.0 -371.0 2.0 8.0 2.0 10.0 1.0 1.0 10.0 1.0 1.0 5.0 2.0 3.0 3.0 8.0 0.0 1.0 8.0 0.0 5.0 4.0 2.0 7.0 10.0 10.0 2.0 3.0 8.0 5.0 4.0 10.0 3.0 3.0 0.0 1.0 6.0 7.0 10.0 2.0 0.0 4.0 0.0 0.0 2.0 8.0 7.0 7.0 2.0 7.0 3.0 0.0 1.0 3.0 4.0 2.0 3.0 3.0 10.0 9.0 4.0 5.0 7.0 7.0 6.0 5.0 1.0 6.0 2.0 0.0 3.0 2.0 0.0 
9.0 5.0 7.0 4.0 4.0 7.0 8.0 0.0 10.0 3.0 8.0 2.0 8.0 6.0 0.0 2.0 0.0 10.0 6.0 10.0 2.0 -456.0 7.0 4.0 5.0 9.0 9.0 5.0 7.0 4.0 8.0 2.0 6.0 7.0 0.0 4.0 6.0 2.0 6.0 8.0 7.0 9.0 2.0 8.0 1.0 6.0 4.0 1.0 5.0 0.0 3.0 1.0 3.0 10.0 2.0 1.0 9.0 0.0 1.0 2.0 7.0 0.0 0.0 9.0 5.0 1.0 1.0 3.0 0.0 3.0 2.0 7.0 2.0 8.0 1.0 4.0 4.0 10.0 4.0 6.0 9.0 10.0 6.0 10.0 7.0 4.0 8.0 10.0 8.0 10.0 5.0 7.0 
2.0 4.0 7.0 1.0 9.0 10.0 2.0 0.0 4.0 1.0 7.0 5.0 1.0 10.0 1.0 7.0 1.0 2.0 5.0 8.0 8.0 7.0 -464.0 5.0 2.0 2.0 4.0 2.0 7.0 0.0 0.0 1.0 6.0 3.0 4.0 8.0 4.0 9.0 7.0 1.0 2.0 6.0 8.0 7.0 6.0 3.0 3.0 9.0 9.0 7.0 1.0 9.0 4.0 7.0 10.0 8.0 6.0 8.0 1.0 1.0 2.0 9.0 7.0 7.0 4.0 6.0 9.0 6.0 9.0 3.0 2.0 3.0 10.0 8.0 9.0 9.0 7.0 10.0 6.0 2.0 6.0 2.0 0.0 7.0 3.0 4.0 5.0 8.0 7.0 1.0 2.0 9.0 
4.0 2.0 9.0 6.0 2.0 4.0 0.0 5.0 2.0 0.0 6.0 8.0 4.0 6.0 0.0 8.0 2.0 10.0 7.0 10.0 2.0 4.0 5.0 -394.0 3.0 2.0 2.0 8.0 4.0 5.0 4.0 1.0 6.0 2.0 0.0 1.0 0.0 5.0 1.0 5.0 6.0 1.0 1.0 4.0 8.0 4.0 2.0 5.0 4.0 3.0 10.0 4.0 9.0 1.0 2.0 0.0 9.0 4.0 0.0 3.0 8.0 2.0 1.0 7.0 5.0 4.0 3.0 10.0 7.0 5.0 6.0 9.0 5.0 7.0 0.0 5.0 10.0 2.0 2.0 7.0 7.0 9.0 3.0 0.0 3.0 3.0 1.0 10.0 8.0 0.0 10.0 0.0 
10.0 8.0 3.0 4.0 6.0 9.0 7.0 4.0 8.0 5.0 10.0 0.0 10.0 7.0 1.0 0.0 10.0 4.0 7.0 4.0 10.0 5.0 2.0 3.0 -440.0 7.0 3.0 2.0 2.0 0.0 0.0 6.0 0.0 9.0 6.0 3.0 6.0 5.0 3.0 9.0 10.0 2.0 3.0 1.0 0.0 4.0 8.0 9.0 0.0 10.0 9.0 4.0 8.0 5.0 2.0 1.0 10.0 7.0 0.0 6.0 2.0 2.0 7.0 2.0 4.0 6.0 10.0 6.0 0.0 7.0 1.0 7.0 2.0 6.0 1.0 0.0 0.0 6.0 6.0 2.0 10.0 2.0 9.0 6.0 1.0 0.0 2.0 5.0 9.0 8.0 7.0 7.0 
0.0 10.0 3.0 6.0 2.0 0.0 5.0 1.0 8.0 3.0 8.0 6.0 3.0 7.0 9.0 0.0 7.0 7.0 8.0 0.0 1.0 9.0 2.0 2.0 7.0 -444.0 4.0 1.0 4.0 3.0 8.0 10.0 7.0 4.0 8.0 1.0 8.0 5.0 4.0 8.0 10.0 0.0 3.0 0.0 0.0 5.0 0.0 2.0 9.0 10.0 9.0 3.0 4.0 7.0 10.0 9.0 7.0 5.0 10.0 5.0 6.0 7.0 1.0 7.0 6.0 4.0 3.0 3.0 8.0 3.0 1.0 6.0 1.0 6.0 5.0 9.0 0.0 5.0 2.0 9.0 8.0 3.0 0.0 8.0 9.0 2.0 1.0 1.0 7.0 0.0 9.0 7.0 
5.0 4.0 0.0 5.0 8.0 7.0 1.0 10.0 10.0 1.0 9.0 1.0 4.0 4.0 0.0 6.0 2.0 7.0 6.0 9.0 1.0 9.0 4.0 2.0 3.0 4.0 -424.0 0.0 4.0 3.0 4.0 4.0 10.0 3.0 6.0 5.0 7.0 2.0 6.0 3.0 3.0 4.0 0.0 9.0 8.0 3.0 9.0 5.0 5.0 5.0 4.0 8.0 4.0 6.0 1.0 5.0 9.0 3.0 9.0 8.0 8.0 1.0 0.0 8.0 1.0 3.0 5.0 0.0 1.0 2.0 6.0 2.0 9.0 3.0 1.0 3.0 7.0 4.0 2.0 5.0 7.0 4.0 6.0 10.0 9.0 9.0 5.0 2.0 10.0 2.0 1.0 1.0 
2.0 3.0 3.0 3.0 10.0 10.0 0.0 8.0 2.0 10.0 0.0 3.0 3.0 6.0 8.0 8.0 10.0 6.0 1.0 6.0 10.0 5.0 2.0 8.0 2.0 1.0 0.0 -437.0 1.0 7.0 6.0 7.0 9.0 4.0 9.0 6.0 2.0 3.0 1.0 6.0 5.0 10.0 10.0 5.0 2.0 0.0 7.0 3.0 8.0 4.0 3.0 10.0 5.0 5.0 1.0 8.0 3.0 5.0 0.0 5.0 8.0 2.0 1.0 0.0 3.0 3.0 10.0 1.0 9.0 9.0 0.0 3.0 10.0 10.0 5.0 9.0 6.0 2.0 8.0 4.0 8.0 10.0 1.0 4.0 5.0 1.0 5.0 0.0 0.0 3.0 4.0 3.0 
7.0 9.0 7.0 2.0 8.0 2.0 3.0 1.0 10.0 0.0 6.0 8.0 5.0 1.0 7.0 7.0 3.0 8.0 8.0 2.0 1.0 7.0 7.0 4.0 2.0 4.0 4.0 1.0 -426.0 5.0 6.0 0.0 3.0 7.0 2.0 6.0 3.0 3.0 3.0 0.0 5.0 6.0 1.0 1.0 9.0 0.0 3.0 0.0 3.0 7.0 5.0 0.0 9.0 6.0 5.0 4.0 8.0 4.0 8.0 9.0 6.0 3.0 2.0 4.0 6.0 2.0 7.0 3.0 6.0 3.0 10.0 1.0 3.0 5.0 8.0 10.0 0.0 0.0 5.0 7.0 4.0 4.0 8.0 10.0 7.0 6.0 7.0 9.0 0.0 5.0 2.0 8.0 
4.0 2.0 0.0 4.0 4.0 4.0 1.0 2.0 3.0 0.0 2.0 5.0 1.0 6.0 4.0 10.0 8.0 6.0 6.0 3.0 1.0 4.0 0.0 5.0 0.0 3.0 3.0 7.0 5.0 -399.0 10.0 5.0 1.0 1.0 9.0 6.0 8.0 3.0 4.0 5.0 6.0 6.0 8.0 6.0 2.0 8.0 2.0 1.0 9.0 6.0 2.0 5.0 3.0 2.0 8.0 8.0 7.0 6.0 7.0 9.0 7.0 3.0 2.0 5.0 6.0 9.0 9.0 0.0 0.0 2.0 3.0 7.0 2.0 0.0 9.0 7.0 5.0 3.0 7.0 3.0 0.0 9.0 0.0 6.0 8.0 2.0 1.0 0.0 1.0 7.0 9.0 1.0 
7.0 1.0 10.0 1.0 8.0 9.0 9.0 7.0 3.0 10.0 2.0 9.0 1.0 10.0 7.0 5.0 1.0 0.0 7.0 9.0 5.0 8.0 0.0 4.0 0.0 8.0 4.0 6.0 6.0 10.0 -484.0 3.0 10.0 10.0 8.0 5.0 5.0 8.0 1.0 3.0 4.0 1.0 10.0 4.0 9.0 10.0 0.0 2.0 8.0 6.0 0.0 5.0 8.0 6.0 10.0 7.0 0.0 0.0 7.0 3.0 3.0 7.0 7.0 9.0 0.0 1.0 7.0 7.0 6.0 0.0 10.0 9.0 10.0 9.0 8.0 4.0 2.0 8.0 6.0 1.0 8.0 9.0 8.0 1.0 6.0 0.0 5.0 0.0 4.0 1.0 6.0 2.0 
6.0 2.0 6.0 6.0 7.0 0.0 0.0 10.0 10.0 2.0 8.0 6.0 6.0 1.0 0.0 8.0 10.0 6.0 10.0 6.0 2.0 2.0 1.0 1.0 6.0 10.0 4.0 7.0 0.0 5.0 3.0 -476.0 2.0 4.0 9.0 3.0 5.0 9.0 0.0 6.0 4.0 3.0 10.0 8.0 3.0 9.0 8.0 2.0 1.0 3.0 7.0 8.0 0.0 2.0 5.0 10.0 7.0 6.0 9.0 8.0 0.0 6.0 6.0 9.0 8.0 0.0 5.0 10.0 2.0 9.0 8.0 0.0 1.0 0.0 5.0 7.0 0.0 10.0 3.0 2.0 8.0 6.0 6.0 3.0 4.0 9.0 3.0 7.0 10.0 8.0 10.0 9.0 
0.0 8.0 5.0 8.0 9.0 3.0 6.0 7.0 1.0 0.0 1.0 5.0 3.0 3.0 5.0 6.0 9.0 6.0 0.0 8.0 3.0 6.0 6.0 6.0 0.0 7.0 10.0 9.0 3.0 1.0 10.0 2.0 -410.0 2.0 4.0 6.0 7.0 3.0 1.0 0.0 4.0 5.0 9.0 5.0 3.0 3.0 0.0 9.0 8.0 3.0 6.0 5.0 4.0 0.0 3.0 0.0 1.0 5.0 4.0 6.0 2.0 1.0 5.0 0.0 5.0 4.0 9.0 2.0 6.0 1.0 7.0 9.0 6.0 2.0 0.0 10.0 6.0 9.0 4.0 7.0 8.0 2.0 7.0 10.0 1.0 1.0 9.0 2.0 1.0 7.0 3.0 2.0 
1.0 4.0 3.0 9.0 7.0 6.0 0.0 6.0 8.0 5.0 4.0 7.0 9.0 9.0 1.0 9.0 6.0 7.0 2.0 2.0 3.0 7.0 3.0 2.0 9.0 4.0 3.0 4.0 7.0 1.0 10.0 4.0 2.0 -484.0 3.0 6.0 0.0 9.0 10.0 4.0 1.0 8.0 9.0 2.0 7.0 4.0 1.0 9.0 9.0 6.0 10.0 7.0 10.0 7.0 4.0 6.0 0.0 6.0 9.0 8.0 9.0 6.0 5.0 7.0 3.0 6.0 6.0 2.0 7.0 7.0 0.0 8.0 7.0 9.0 3.0 1.0 4.0 1.0 7.0 1.0 7.0 6.0 1.0 9.0 7.0 2.0 8.0 9.0 2.0 3.0 8.0 4.0 
4.0 10.0 10.0 7.0 0.0 7.0 10.0 8.0 1.0 8.0 2.0 9.0 3.0 6.0 6.0 1.0 1.0 4.0 8.0 2.0 8.0 0.0 4.0 0.0 6.0 8.0 6.0 9.0 2.0 9.0 8.0 9.0 4.0 3.0 -456.0 9.0 6.0 3.0 7.0 1.0 2.0 6.0 9.0 1.0 5.0 10.0 3.0 4.0 8.0 10.0 7.0 3.0 1.0 5.0 6.0 3.0 7.0 7.0 8.0 3.0 5.0 6.0 4.0 9.0 1.0 8.0 6.0 1.0 8.0 6.0 6.0 4.0 7.0 6.0 3.0 3.0 4.0 6.0 5.0 1.0 5.0 2.0 1.0 2.0 0.0 7.0 6.0 4.0 4.0 0.0 3.0 6.0 
10.0 8.0 1.0 7.0 3.0 6.0 3.0 2.0 0.0 0.0 4.0 5.0 1.0 8.0 4.0 10.0 7.0 8.0 0.0 9.0 0.0 4.0 8.0 1.0 3.0 1.0 5.0 6.0 6.0 6.0 5.0 3.0 6.0 6.0 9.0 -437.0 5.0 6.0 7.0 8.0 10.0 8.0 5.0 5.0 3.0 5.0 10.0 5.0 3.0 2.0 8.0 3.0 0.0 10.0 1.0 4.0 2.0 10.0 3.0 0.0 1.0 2.0 10.0 4.0 5.0 8.0 2.0 8.0 1.0 1.0 9.0 4.0 8.0 1.0 0.0 0.0 4.0 5.0 8.0 4.0 0.0 4.0 10.0 10.0 2.0 5.0 8.0 4.0 1.0 8.0 7.0 5.0 
9.0 5.0 4.0 3.0 6.0 0.0 6.0 3.0 2.0 7.0 6.0 7.0 6.0 2.0 5.0 3.0 5.0 5.0 6.0 0.0 1.0 6.0 4.0 0.0 6.0 8.0 7.0 2.0 3.0 8.0 5.0 5.0 7.0 0.0 6.0 5.0 -440.0 7.0 4.0 8.0 9.0 4.0 8.0 1.0 9.0 10.0 5.0 3.0 6.0 2.0 5.0 2.0 3.0 8.0 7.0 2.0 6.0 6.0 7.0 9.0 6.0 4.0 1.0 4.0 10.0 2.0 4.0 5.0 2.0 5.0 6.0 6.0 8.0 3.0 3.0 9.0 1.0 5.0 0.0 1.0 0.0 9.0 3.0 4.0 8.0 10.0 10.0 1.0 5.0 1.0 4.0 6.0 
8.0 7.0 9.0 4.0 10.0 6.0 9.0 7.0 1.0 8.0 10.0 3.0 10.0 8.0 8.0 3.0 6.0 2.0 3.0 9.0 8.0 2.0 9.0 5.0 5.0 5.0 2.0 3.0 3.0 3.0 8.0 9.0 3.0 9.0 3.0 6.0 7.0 -492.0 4.0 3.0 2.0 6.0 6.0 0.0 5.0 7.0 0.0 6.0 10.0 7.0 0.0 10.0 0.0 6.0 8.0 8.0 6.0 8.0 2.0 0.0 1.0 4.0 8.0 6.0 3.0 7.0 9.0 9.0 10.0 2.0 4.0 8.0 6.0 2.0 5.0 2.0 8.0 2.0 9.0 1.0 6.0 6.0 9.0 10.0 0.0 6.0 5.0 4.0 7.0 1.0 3.0 4.0 
5.0 5.0 7.0 2.0 0.0 6.0 0.0 6.0 2.0 7.0 2.0 5.0 0.0 1.0 0.0 4.0 9.0 9.0 5.0 5.0 0.0 6.0 7.0 1.0 3.0 4.0 6.0 1.0 3.0 4.0 1.0 0.0 1.0 10.0 7.0 7.0 4.0 4.0 -394.0 10.0 10.0 5.0 3.0 3.0 10.0 1.0 0.0 8.0 8.0 9.0 1.0 9.0 0.0 0.0 5.0 2.0 1.0 10.0 8.0 3.0 0.0 9.0 9.0 8.0 1.0 9.0 3.0 2.0 10.0 0.0 10.0 2.0 8.0 2.0 1.0 1.0 5.0 0.0 8.0 1.0 7.0 0.0 3.0 2.0 8.0 3.0 8.0 4.0 1.0 6.0 4.0 4.0 
0.0 4.0 9.0 0.0 4.0 4.0 8.0 4.0 8.0 1.0 3.0 7.0 6.0 2.0 4.0 9.0 9.0 0.0 0.0 2.0 5.0 8.0 1.0 5.0 9.0 8.0 3.0 6.0 0.0 5.0 3.0 6.0 0.0 4.0 1.0 8.0 8.0 3.0 10.0 -436.0 9.0 9.0 0.0 0.0 4.0 4.0 7.0 2.0 6.0 8.0 6.0 7.0 5.0 0.0 3.0 8.0 8.0 0.0 7.0 0.0 5.0 0.0 7.0 3.0 2.0 7.0 6.0 5.0 2.0 2.0 9.0 4.0 9.0 2.0 0.0 6.0 7.0 2.0 8.0 8.0 2.0 2.0 8.0 9.0 8.0 10.0 3.0 10.0 0.0 4.0 8.0 8.0 
1.0 1.0 9.0 3.0 0.0 9.0 2.0 1.0 4.0 3.0 0.0 2.0 3.0 2.0 9.0 0.0 5.0 1.0 10.0 2.0 4.0 7.0 2.0 6.0 10.0 10.0 3.0 5.0 5.0 6.0 4.0 4.0 4.0 1.0 2.0 10.0 9.0 2.0 10.0 9.0 -437.0 2.0 7.0 9.0 5.0 6.0 10.0 2.0 1.0 2.0 4.0 1.0 4.0 4.0 4.0 4.0 4.0 6.0 10.0 4.0 3.0 1.0 0.0 5.0 5.0 1.0 5.0 5.0 10.0 5.0 0.0 10.0 5.0 8.0 4.0 8.0 8.0 2.0 9.0 7.0 7.0 8.0 10.0 0.0 9.0 8.0 6.0 1.0 10.0 8.0 0.0 0.0 
10.0 10.0 8.0 9.0 10.0 7.0 7.0 3.0 10.0 1.0 0.0 0.0 6.0 4.0 10.0 1.0 3.0 6.0 6.0 3.0 2.0 9.0 6.0 1.0 2.0 0.0 4.0 10.0 6.0 6.0 1.0 3.0 5.0 8.0 6.0 8.0 4.0 6.0 5.0 9.0 2.0 -488.0 5.0 10.0 7.0 8.0 0.0 10.0 5.0 3.0 6.0 2.0 1.0 9.0 1.0 5.0 0.0 8.0 7.0 10.0 10.0 1.0 6.0 0.0 1.0 7.0 9.0 9.0 6.0 8.0 8.0 7.0 5.0 0.0 4.0 1.0 3.0 2.0 1.0 7.0 3.0 6.0 4.0 9.0 9.0 2.0 10.0 10.0 9.0 8.0 2.0 7.0 
7.0 4.0 10.0 10.0 7.0 6.0 2.0 0.0 2.0 5.0 6.0 7.0 3.0 9.0 1.0 5.0 1.0 4.0 1.0 10.0 7.0 2.0 8.0 1.0 3.0 3.0 0.0 10.0 1.0 8.0 10.0 10.0 9.0 9.0 9.0 5.0 8.0 6.0 3.0 0.0 7.0 5.0 -471.0 6.0 2.0 0.0 10.0 10.0 6.0 9.0 3.0 6.0 3.0 5.0 6.0 5.0 6.0 1.0 3.0 1.0 8.0 1.0 2.0 2.0 7.0 5.0 4.0 4.0 8.0 4.0 0.0 10.0 8.0 2.0 3.0 6.0 8.0 4.0 9.0 9.0 2.0 7.0 9.0 3.0 7.0 4.0 5.0 0.0 2.0 8.0 8.0 6.0 
1.0 7.0 1.0 9.0 3.0 10.0 6.0 5.0 3.0 3.0 9.0 8.0 5.0 9.0 1.0 3.0 7.0 7.0 0.0 3.0 10.0 8.0 7.0 4.0 1.0 0.0 9.0 5.0 1.0 6.0 4.0 8.0 5.0 2.0 1.0 5.0 1.0 0.0 3.0 0.0 9.0 10.0 6.0 -472.0 10.0 1.0 3.0 5.0 8.0 3.0 4.0 8.0 5.0 10.0 3.0 1.0 8.0 10.0 5.0 7.0 3.0 7.0 3.0 4.0 7.0 9.0 10.0 6.0 2.0 8.0 3.0 9.0 9.0 1.0 1.0 2.0 2.0 5.0 8.0 0.0 5.0 10.0 3.0 9.0 10.0 2.0 9.0 0.0 6.0 5.0 8.0 10.0 
4.0 8.0 7.0 0.0 3.0 5.0 10.0 10.0 8.0 8.0 0.0 5.0 1.0 9.0 2.0 9.0 0.0 1.0 8.0 2.0 10.0 1.0 6.0 8.0 0.0 0.0 8.0 2.0 9.0 2.0 9.0 3.0 3.0 7.0 5.0 3.0 9.0 5.0 10.0 4.0 5.0 7.0 2.0 10.0 -468.0 5.0 4.0 1.0 5.0 3.0 7.0 4.0 10.0 5.0 7.0 6.0 0.0 7.0 3.0 0.0 4.0 4.0 3.0 3.0 2.0 9.0 8.0 9.0 9.0 3.0 7.0 1.0 8.0 2.0 10.0 8.0 5.0 9.0 1.0 3.0 8.0 4.0 4.0 5.0 8.0 3.0 5.0 4.0 3.0 9.0 10.0 2.0 
3.0 9.0 1.0 6.0 7.0 2.0 0.0 4.0 5.0 6.0 8.0 2.0 6.0 0.0 9.0 8.0 8.0 9.0 6.0 1.0 2.0 6.0 3.0 4.0 4.0 5.0 3.0 0.0 0.0 8.0 10.0 9.0 3.0 4.0 10.0 5.0 10.0 7.0 1.0 4.0 6.0 8.0 0.0 1.0 5.0 -437.0 5.0 8.0 0.0 6.0 4.0 2.0 9.0 4.0 2.0 2.0 5.0 2.0 2.0 6.0 6.0 6.0 6.0 4.0 9.0 3.0 1.0 6.0 1.0 10.0 1.0 5.0 5.0 2.0 2.0 5.0 6.0 9.0 7.0 2.0 4.0 6.0 1.0 6.0 9.0 6.0 7.0 4.0 7.0 7.0 8.0 1.0 
4.0 9.0 10.0 10.0 5.0 0.0 8.0 0.0 0.0 8.0 6.0 4.0 6.0 5.0 0.0 1.0 1.0 1.0 10.0 8.0 3.0 4.0 3.0 2.0 8.0 0.0 9.0 7.0 3.0 2.0 0.0 8.0 0.0 1.0 3.0 10.0 5.0 0.0 0.0 7.0 10.0 0.0 10.0 3.0 4.0 5.0 -428.0 5.0 10.0 4.0 10.0 6.0 3.0 4.0 0.0 9.0 5.0 8.0 9.0 8.0 4.0 2.0 6.0 8.0 3.0 0.0 3.0 9.0 1.0 0.0 6.0 7.0 4.0 6.0 0.0 5.0 0.0 0.0 2.0 9.0 8.0 1.0 3.0 9.0 9.0 4.0 10.0 7.0 9.0 6.0 3.0 0.0 
6.0 7.0 3.0 0.0 9.0 6.0 8.0 0.0 8.0 1.0 6.0 9.0 10.0 0.0 4.0 6.0 8.0 0.0 8.0 5.0 8.0 1.0 9.0 5.0 9.0 2.0 5.0 3.0 0.0 1.0 2.0 2.0 9.0 9.0 4.0 5.0 3.0 6.0 8.0 2.0 2.0 10.0 10.0 5.0 1.0 8.0 5.0 -421.0 1.0 10.0 10.0 1.0 3.0 7.0 3.0 6.0 9.0 7.0 6.0 6.0 8.0 2.0 1.0 2.0 1.0 5.0 0.0 0.0 8.0 8.0 0.0 3.0 6.0 5.0 8.0 0.0 4.0 5.0 3.0 1.0 5.0 8.0 4.0 0.0 0.0 4.0 3.0 5.0 4.0 1.0 10.0 0.0 
10.0 7.0 4.0 6.0 4.0 9.0 6.0 9.0 2.0 9.0 9.0 1.0 5.0 5.0 7.0 8.0 9.0 4.0 0.0 1.0 5.0 5.0 9.0 4.0 0.0 9.0 5.0 8.0 3.0 9.0 8.0 1.0 8.0 9.0 8.0 3.0 6.0 10.0 8.0 6.0 1.0 5.0 6.0 8.0 5.0 0.0 10.0 1.0 -489.0 2.0 1.0 9.0 1.0 4.0 10.0 6.0 6.0 3.0 3.0 4.0 10.0 4.0 2.0 2.0 0.0 3.0 7.0 5.0 4.0 10.0 6.0 1.0 5.0 5.0 5.0 4.0 8.0 2.0 9.0 5.0 6.0 6.0 9.0 0.0 10.0 7.0 0.0 9.0 8.0 6.0 5.0 2.0 
1.0 6.0 9.0 0.0 9.0 6.0 5.0 2.0 3.0 7.0 6.0 6.0 9.0 7.0 10.0 1.0 6.0 4.0 1.0 2.0 4.0 0.0 7.0 3.0 10.0 10.0 5.0 4.0 7.0 6.0 6.0 3.0 3.0 6.0 10.0 2.0 2.0 7.0 9.0 8.0 2.0 3.0 9.0 3.0 3.0 6.0 4.0 10.0 2.0 -432.0 1.0 0.0 0.0 6.0 10.0 1.0 10.0 4.0 0.0 1.0 7.0 2.0 6.0 10.0 8.0 10.0 3.0 2.0 4.0 2.0 9.0 0.0 2.0 2.0 8.0 9.0 1.0 7.0 1.0 9.0 9.0 0.0 5.0 0.0 4.0 4.0 3.0 9.0 3.0 1.0 3.0 2.0 
2.0 3.0 0.0 6.0 4.0 2.0 3.0 4.0 1.0 3.0 7.0 0.0 8.0 5.0 9.0 5.0 8.0 9.0 2.0 6.0 10.0 3.0 1.0 10.0 9.0 9.0 4.0 3.0 5.0 2.0 0.0 7.0 6.0 10.0 7.0 8.0 5.0 0.0 1.0 6.0 4.0 6.0 3.0 4.0 7.0 4.0 10.0 10.0 1.0 1.0 -462.0 3.0 6.0 9.0 9.0 8.0 8.0 10.0 9.0 6.0 10.0 0.0 4.0 8.0 1.0 1.0 9.0 8.0 8.0 1.0 4.0 6.0 1.0 4.0 5.0 9.0 3.0 3.0 2.0 10.0 5.0 4.0 6.0 5.0 9.0 7.0 6.0 2.0 5.0 2.0 1.0 2.0 
5.0 2.0 7.0 1.0 10.0 9.0 10.0 1.0 7.0 6.0 8.0 3.0 7.0 8.0 3.0 9.0 8.0 8.0 3.0 7.0 3.0 1.0 9.0 4.0 4.0 3.0 8.0 10.0 0.0 5.0 5.0 8.0 5.0 7.0 3.0 3.0 2.0 10.0 9.0 7.0 1.0 2.0 6.0 8.0 4.0 2.0 6.0 1.0 9.0 0.0 3.0 -451.0 1.0 0.0 10.0 7.0 5.0 5.0 4.0 7.0 6.0 1.0 7.0 3.0 2.0 10.0 1.0 7.0 3.0 2.0 1.0 1.0 3.0 4.0 2.0 2.0 0.0 6.0 5.0 0.0 4.0 6.0 5.0 7.0 10.0 10.0 8.0 9.0 0.0 10.0 3.0 4.0 
3.0 1.0 2.0 10.0 8.0 4.0 4.0 0.0 10.0 1.0 7.0 9.0 8.0 8.0 8.0 0.0 7.0 4.0 3.0 9.0 3.0 3.0 4.0 9.0 8.0 4.0 4.0 5.0 9.0 3.0 8.0 0.0 4.0 10.0 1.0 0.0 3.0 0.0 0.0 5.0 4.0 1.0 3.0 5.0 10.0 9.0 3.0 3.0 1.0 0.0 6.0 1.0 -417.0 3.0 9.0 1.0 9.0 7.0 2.0 2.0 1.0 5.0 9.0 4.0 8.0 7.0 0.0 4.0 5.0 7.0 4.0 1.0 0.0 9.0 4.0 6.0 7.0 0.0 6.0 6.0 0.0 8.0 10.0 3.0 7.0 1.0 5.0 4.0 2.0 1.0 9.0 6.0 
2.0 10.0 3.0 5.0 3.0 6.0 4.0 7.0 5.0 5.0 5.0 9.0 3.0 9.0 8.0 2.0 5.0 8.0 1.0 6.0 0.0 10.0 7.0 1.0 5.0 7.0 6.0 5.0 6.0 2.0 6.0 2.0 0.0 7.0 5.0 10.0 8.0 6.0 0.0 0.0 4.0 9.0 5.0 10.0 5.0 4.0 4.0 7.0 4.0 6.0 9.0 0.0 3.0 -468.0 9.0 5.0 9.0 9.0 4.0 5.0 4.0 4.0 3.0 1.0 10.0 9.0 7.0 1.0 3.0 9.0 3.0 8.0 0.0 6.0 7.0 7.0 6.0 0.0 0.0 3.0 4.0 5.0 7.0 4.0 8.0 8.0 9.0 4.0 9.0 3.0 5.0 1.0 
7.0 10.0 3.0 6.0 10.0 8.0 5.0 5.0 3.0 6.0 10.0 0.0 8.0 8.0 4.0 7.0 7.0 3.0 7.0 9.0 1.0 2.0 10.0 2.0 2.0 10.0 1.0 1.0 5.0 8.0 10.0 5.0 3.0 4.0 6.0 1.0 7.0 8.0 5.0 3.0 4.0 1.0 6.0 3.0 7.0 2.0 0.0 3.0 10.0 10.0 9.0 10.0 9.0 9.0 -462.0 6.0 3.0 4.0 1.0 1.0 9.0 10.0 2.0 0.0 2.0 3.0 2.0 3.0 3.0 5.0 5.0 4.0 3.0 0.0 1.0 3.0 8.0 1.0 9.0 4.0 4.0 7.0 3.0 8.0 9.0 0.0 8.0 6.0 5.0 0.0 10.0 7.0 
1.0 9.0 2.0 2.0 9.0 6.0 9.0 8.0 4.0 7.0 10.0 3.0 6.0 1.0 1.0 2.0 4.0 6.0 8.0 1.0 6.0 1.0 8.0 0.0 1.0 9.0 5.0 8.0 4.0 8.0 7.0 10.0 0.0 6.0 3.0 4.0 2.0 8.0 2.0 8.0 4.0 5.0 5.0 1.0 6.0 2.0 9.0 6.0 6.0 1.0 8.0 7.0 1.0 5.0 6.0 -443.0 0.0 6.0 7.0 10.0 6.0 7.0 8.0 0.0 0.0 8.0 1.0 1.0 1.0 2.0 7.0 8.0 2.0 1.0 8.0 6.0 2.0 9.0 0.0 2.0 3.0 9.0 4.0 2.0 5.0 4.0 8.0 6.0 9.0 4.0 8.0 8.0 
4.0 10.0 7.0 5.0 9.0 1.0 9.0 1.0 5.0 2.0 3.0 7.0 2.0 3.0 7.0 0.0 5.0 10.0 0.0 9.0 7.0 9.0 6.0 9.0 10.0 7.0 9.0 3.0 8.0 7.0 0.0 7.0 1.0 0.0 7.0 2.0 6.0 6.0 1.0 8.0 4.0 0.0 6.0 8.0 0.0 5.0 5.0 9.0 6.0 10.0 8.0 5.0 9.0 9.0 3.0 0.0 -478.0 8.0 10.0 7.0 9.0 8.0 0.0 7.0 2.0 2.0 8.0 1.0 10.0 2.0 9.0 7.0 2.0 0.0 4.0 1.0 2.0 10.0 5.0 7.0 0.0 5.0 2.0 7.0 4.0 10.0 5.0 8.0 3.0 4.0 7.0 3.0 
2.0 7.0 4.0 2.0 5.0 0.0 2.0 7.0 4.0 4.0 8.0 5.0 9.0 4.0 9.0 3.0 3.0 8.0 10.0 6.0 10.0 0.0 8.0 4.0 7.0 5.0 3.0 5.0 4.0 6.0 0.0 6.0 5.0 6.0 7.0 10.0 6.0 8.0 10.0 0.0 6.0 8.0 1.0 10.0 7.0 2.0 8.0 7.0 3.0 4.0 10.0 5.0 7.0 9.0 4.0 6.0 8.0 -460.0 3.0 9.0 3.0 7.0 5.0 1.0 5.0 5.0 5.0 6.0 5.0 4.0 2.0 3.0 2.0 7.0 0.0 6.0 4.0 1.0 0.0 5.0 5.0 4.0 2.0 3.0 2.0 4.0 6.0 9.0 8.0 10.0 0.0 2.0 
10.0 4.0 5.0 7.0 3.0 8.0 9.0 2.0 3.0 2.0 0.0 8.0 4.0 4.0 8.0 4.0 6.0 8.0 10.0 0.0 2.0 1.0 1.0 0.0 0.0 10.0 9.0 0.0 8.0 7.0 7.0 9.0 4.0 9.0 8.0 3.0 7.0 2.0 8.0 7.0 10.0 7.0 3.0 5.0 3.0 2.0 9.0 6.0 3.0 0.0 9.0 4.0 2.0 4.0 1.0 7.0 10.0 3.0 -451.0 4.0 0.0 6.0 1.0 6.0 10.0 6.0 9.0 10.0 7.0 7.0 4.0 2.0 5.0 1.0 1.0 0.0 8.0 5.0 10.0 4.0 3.0 5.0 7.0 6.0 6.0 8.0 0.0 2.0 8.0 3.0 0.0 2.0 
6.0 10.0 1.0 8.0 7.0 2.0 10.0 2.0 0.0 8.0 8.0 6.0 10.0 1.0 7.0 3.0 2.0 5.0 5.0 6.0 0.0 2.0 1.0 3.0 6.0 5.0 8.0 5.0 9.0 9.0 3.0 8.0 6.0 8.0 3.0 0.0 9.0 0.0 3.0 0.0 4.0 10.0 1.0 7.0 0.0 6.0 8.0 6.0 4.0 1.0 6.0 7.0 2.0 5.0 1.0 10.0 7.0 9.0 4.0 -437.0 0.0 6.0 10.0 9.0 8.0 6.0 10.0 1.0 2.0 7.0 7.0 0.0 1.0 6.0 3.0 6.0 4.0 9.0 2.0 10.0 3.0 3.0 0.0 3.0 1.0 3.0 5.0 1.0 0.0 5.0 4.0 9.0 
0.0 2.0 3.0 8.0 8.0 7.0 0.0 4.0 5.0 9.0 4.0 4.0 7.0 6.0 9.0 8.0 1.0 5.0 1.0 2.0 4.0 7.0 2.0 8.0 2.0 6.0 8.0 8.0 6.0 7.0 3.0 0.0 2.0 9.0 5.0 1.0 6.0 1.0 0.0 5.0 3.0 10.0 8.0 3.0 4.0 6.0 4.0 8.0 10.0 7.0 10.0 6.0 1.0 4.0 9.0 6.0 9.0 3.0 0.0 0.0 -433.0 8.0 5.0 8.0 3.0 4.0 1.0 1.0 7.0 7.0 5.0 4.0 4.0 1.0 10.0 8.0 7.0 3.0 2.0 4.0 3.0 7.0 5.0 2.0 6.0 0.0 0.0 9.0 0.0 3.0 9.0 3.0 
0.0 7.0 8.0 0.0 10.0 7.0 3.0 10.0 6.0 4.0 2.0 9.0 0.0 8.0 8.0 4.0 4.0 2.0 8.0 6.0 0.0 0.0 9.0 2.0 2.0 7.0 1.0 2.0 3.0 3.0 7.0 6.0 1.0 6.0 6.0 2.0 4.0 4.0 9.0 0.0 1.0 1.0 1.0 7.0 4.0 6.0 2.0 2.0 4.0 2.0 0.0 1.0 5.0 4.0 10.0 7.0 8.0 7.0 6.0 6.0 8.0 -444.0 5.0 7.0 10.0 7.0 6.0 3.0 7.0 3.0 3.0 7.0 6.0 7.0 4.0 6.0 8.0 1.0 1.0 0.0 9.0 10.0 7.0 9.0 8.0 2.0 8.0 4.0 8.0 10.0 4.0 2.0 
2.0 1.0 9.0 5.0 3.0 2.0 6.0 1.0 3.0 0.0 5.0 6.0 7.0 10.0 1.0 5.0 9.0 0.0 1.0 7.0 0.0 0.0 7.0 1.0 7.0 1.0 0.0 1.0 2.0 2.0 7.0 6.0 5.0 5.0 4.0 10.0 1.0 8.0 9.0 7.0 0.0 6.0 2.0 3.0 3.0 6.0 6.0 1.0 2.0 6.0 4.0 7.0 9.0 3.0 2.0 8.0 0.0 5.0 1.0 10.0 5.0 5.0 -374.0 4.0 0.0 6.0 3.0 4.0 6.0 0.0 5.0 0.0 5.0 4.0 9.0 4.0 5.0 8.0 4.0 3.0 3.0 1.0 2.0 1.0 6.0 2.0 8.0 0.0 4.0 8.0 6.0 3.0 
6.0 8.0 9.0 8.0 10.0 9.0 7.0 2.0 6.0 1.0 10.0 1.0 1.0 8.0 0.0 9.0 3.0 10.0 8.0 4.0 2.0 9.0 7.0 7.0 2.0 7.0 8.0 0.0 4.0 5.0 9.0 9.0 0.0 7.0 9.0 4.0 4.0 6.0 8.0 3.0 5.0 0.0 2.0 4.0 3.0 4.0 8.0 2.0 2.0 10.0 8.0 3.0 4.0 1.0 0.0 0.0 7.0 1.0 6.0 9.0 8.0 7.0 4.0 -454.0 8.0 1.0 5.0 10.0 0.0 3.0 2.0 7.0 9.0 1.0 1.0 9.0 5.0 10.0 10.0 0.0 8.0 0.0 3.0 10.0 2.0 4.0 1.0 0.0 2.0 4.0 1.0 10.0 
3.0 7.0 3.0 6.0 8.0 0.0 0.0 0.0 4.0 0.0 6.0 6.0 10.0 3.0 1.0 9.0 5.0 1.0 3.0 2.0 8.0 5.0 4.0 5.0 4.0 6.0 1.0 3.0 6.0 6.0 0.0 8.0 5.0 3.0 1.0 5.0 10.0 3.0 1.0 2.0 5.0 1.0 7.0 7.0 2.0 9.0 3.0 1.0 0.0 8.0 1.0 2.0 8.0 10.0 2.0 0.0 2.0 5.0 10.0 8.0 3.0 10.0 0.0 8.0 -431.0 8.0 7.0 8.0 10.0 6.0 5.0 9.0 10.0 3.0 3.0 1.0 6.0 10.0 10.0 6.0 0.0 8.0 7.0 3.0 9.0 1.0 9.0 5.0 1.0 1.0 0.0 10.0 
0.0 5.0 6.0 5.0 5.0 5.0 9.0 7.0 9.0 6.0 4.0 1.0 0.0 6.0 8.0 4.0 4.0 9.0 8.0 9.0 7.0 1.0 6.0 4.0 6.0 4.0 3.0 3.0 2.0 9.0 1.0 0.0 4.0 6.0 8.0 8.0 2.0 7.0 9.0 7.0 1.0 7.0 5.0 9.0 9.0 3.0 0.0 5.0 3.0 10.0 1.0 10.0 7.0 9.0 3.0 8.0 2.0 5.0 6.0 6.0 4.0 7.0 6.0 1.0 8.0 -471.0 0.0 2.0 0.0 8.0 9.0 9.0 6.0 5.0 1.0 9.0 7.0 4.0 2.0 1.0 1.0 9.0 6.0 9.0 2.0 5.0 4.0 7.0 4.0 4.0 6.0 9.0 
0.0 4.0 5.0 8.0 9.0 9.0 2.0 0.0 2.0 3.0 1.0 7.0 10.0 7.0 6.0 1.0 4.0 10.0 2.0 10.0 7.0 1.0 9.0 3.0 10.0 3.0 5.0 10.0 7.0 9.0 7.0 5.0 9.0 6.0 6.0 2.0 4.0 9.0 3.0 6.0 5.0 9.0 4.0 10.0 8.0 1.0 3.0 0.0 7.0 3.0 9.0 1.0 0.0 7.0 2.0 1.0 8.0 5.0 9.0 10.0 1.0 6.0 3.0 5.0 7.0 0.0 -487.0 9.0 1.0 6.0 7.0 9.0 10.0 10.0 7.0 9.0 9.0 6.0 6.0 3.0 6.0 5.0 8.0 3.0 0.0 5.0 1.0 10.0 6.0 1.0 4.0 1.0 
6.0 3.0 6.0 3.0 9.0 6.0 10.0 8.0 9.0 3.0 3.0 6.0 8.0 2.0 2.0 2.0 4.0 10.0 6.0 0.0 2.0 3.0 6.0 10.0 6.0 3.0 0.0 1.0 3.0 0.0 7.0 10.0 2.0 2.0 1.0 8.0 5.0 9.0 2.0 5.0 5.0 9.0 4.0 6.0 9.0 6.0 9.0 0.0 5.0 2.0 8.0 7.0 4.0 1.0 3.0 1.0 1.0 6.0 10.0 1.0 1.0 3.0 4.0 10.0 8.0 2.0 9.0 -435.0 4.0 0.0 7.0 7.0 10.0 3.0 7.0 6.0 2.0 1.0 8.0 9.0 3.0 9.0 3.0 10.0 5.0 2.0 4.0 1.0 0.0 4.0 0.0 5.0 
6.0 8.0 10.0 6.0 8.0 8.0 2.0 10.0 8.0 4.0 6.0 7.0 5.0 0.0 4.0 5.0 8.0 7.0 6.0 3.0 7.0 0.0 9.0 7.0 0.0 8.0 1.0 9.0 6.0 0.0 6.0 2.0 6.0 7.0 8.0 1.0 2.0 10.0 10.0 2.0 10.0 6.0 8.0 2.0 9.0 1.0 1.0 8.0 4.0 4.0 8.0 3.0 5.0 3.0 3.0 1.0 10.0 5.0 7.0 2.0 7.0 7.0 6.0 0.0 10.0 0.0 1.0 4.0 -442.0 0.0 6.0 2.0 5.0 4.0 3.0 7.0 3.0 1.0 4.0 1.0 6.0 1.0 9.0 5.0 5.0 1.0 9.0 3.0 0.0 1.0 0.0 9.0 
0.0 7.0 8.0 0.0 8.0 2.0 3.0 7.0 7.0 5.0 10.0 2.0 10.0 3.0 6.0 9.0 10.0 7.0 1.0 10.0 3.0 3.0 3.0 5.0 7.0 3.0 2.0 9.0 3.0 2.0 0.0 9.0 1.0 7.0 6.0 1.0 5.0 2.0 0.0 2.0 5.0 8.0 4.0 8.0 3.0 10.0 0.0 8.0 10.0 2.0 1.0 2.0 7.0 9.0 5.0 2.0 2.0 4.0 7.0 7.0 7.0 3.0 0.0 3.0 6.0 8.0 6.0 0.0 0.0 -435.0 4.0 10.0 5.0 6.0 5.0 5.0 0.0 3.0 9.0 4.0 4.0 3.0 10.0 8.0 0.0 1.0 9.0 9.0 2.0 4.0 8.0 1.0 
10.0 6.0 3.0 2.0 6.0 1.0 3.0 4.0 10.0 8.0 1.0 2.0 3.0 10.0 2.0 9.0 1.0 6.0 5.0 9.0 0.0 2.0 2.0 6.0 1.0 1.0 6.0 0.0 10.0 3.0 10.0 8.0 7.0 0.0 6.0 9.0 6.0 4.0 10.0 9.0 0.0 8.0 0.0 3.0 7.0 1.0 6.0 0.0 6.0 9.0 4.0 1.0 4.0 3.0 5.0 7.0 9.0 2.0 4.0 7.0 5.0 3.0 5.0 2.0 5.0 9.0 7.0 7.0 6.0 4.0 -451.0 4.0 10.0 4.0 10.0 3.0 9.0 4.0 2.0 8.0 9.0 7.0 1.0 6.0 1.0 6.0 7.0 9.0 3.0 0.0 0.0 8.0 
9.0 1.0 10.0 4.0 2.0 5.0 9.0 5.0 6.0 6.0 10.0 2.0 9.0 5.0 0.0 1.0 7.0 4.0 6.0 1.0 1.0 7.0 3.0 9.0 7.0 6.0 2.0 3.0 1.0 7.0 9.0 0.0 9.0 8.0 4.0 4.0 6.0 8.0 2.0 4.0 10.0 7.0 10.0 9.0 1.0 5.0 7.0 3.0 1.0 0.0 6.0 1.0 1.0 8.0 4.0 8.0 7.0 3.0 2.0 0.0 4.0 7.0 0.0 7.0 9.0 9.0 9.0 7.0 2.0 10.0 4.0 -478.0 5.0 9.0 7.0 3.0 8.0 10.0 10.0 2.0 5.0 5.0 7.0 5.0 4.0 1.0 9.0 9.0 7.0 5.0 0.0 4.0 
1.0 8.0 3.0 6.0 8.0 3.0 7.0 5.0 8.0 9.0 5.0 1.0 1.0 6.0 8.0 9.0 10.0 3.0 2.0 3.0 3.0 2.0 10.0 5.0 2.0 1.0 9.0 10.0 3.0 2.0 10.0 1.0 6.0 7.0 7.0 8.0 8.0 6.0 8.0 9.0 5.0 5.0 8.0 9.0 8.0 5.0 4.0 6.0 5.0 2.0 1.0 3.0 0.0 0.0 3.0 2.0 2.0 2.0 5.0 1.0 4.0 6.0 5.0 9.0 10.0 6.0 10.0 10.0 5.0 5.0 10.0 5.0 -466.0 3.0 1.0 5.0 7.0 8.0 1.0 9.0 2.0 10.0 7.0 3.0 4.0 0.0 7.0 2.0 3.0 4.0 0.0 6.0 
8.0 5.0 4.0 3.0 8.0 6.0 9.0 10.0 5.0 4.0 6.0 6.0 7.0 8.0 3.0 0.0 8.0 3.0 3.0 4.0 4.0 8.0 8.0 7.0 6.0 6.0 3.0 10.0 5.0 0.0 9.0 0.0 2.0 9.0 6.0 1.0 3.0 2.0 2.0 2.0 8.0 0.0 2.0 1.0 2.0 2.0 6.0 5.0 5.0 2.0 4.0 4.0 9.0 6.0 0.0 1.0 0.0 7.0 1.0 6.0 1.0 7.0 4.0 1.0 3.0 5.0 10.0 3.0 4.0 6.0 4.0 9.0 3.0 -422.0 2.0 1.0 10.0 4.0 3.0 2.0 1.0 10.0 5.0 4.0 8.0 6.0 4.0 9.0 5.0 5.0 8.0 1.0 
6.0 5.0 7.0 2.0 7.0 6.0 0.0 9.0 1.0 9.0 2.0 9.0 4.0 2.0 9.0 8.0 7.0 0.0 0.0 10.0 2.0 1.0 9.0 0.0 1.0 5.0 1.0 5.0 8.0 9.0 8.0 5.0 0.0 3.0 3.0 0.0 3.0 5.0 1.0 0.0 4.0 4.0 3.0 1.0 10.0 2.0 0.0 8.0 5.0 8.0 5.0 2.0 4.0 7.0 1.0 8.0 4.0 0.0 1.0 3.0 10.0 4.0 9.0 1.0 3.0 1.0 7.0 7.0 3.0 5.0 10.0 7.0 1.0 2.0 -376.0 0.0 4.0 4.0 6.0 3.0 2.0 10.0 2.0 1.0 0.0 2.0 7.0 5.0 1.0 0.0 2.0 5.0 
6.0 7.0 9.0 6.0 4.0 10.0 7.0 8.0 7.0 2.0 2.0 8.0 8.0 1.0 4.0 2.0 10.0 3.0 7.0 8.0 3.0 4.0 9.0 5.0 0.0 9.0 3.0 9.0 10.0 7.0 4.0 7.0 10.0 1.0 3.0 0.0 9.0 2.0 1.0 6.0 8.0 1.0 6.0 2.0 8.0 5.0 5.0 0.0 4.0 9.0 9.0 2.0 6.0 7.0 3.0 6.0 1.0 6.0 0.0 6.0 8.0 6.0 4.0 9.0 1.0 9.0 9.0 6.0 7.0 5.0 3.0 3.0 5.0 1.0 0.0 -485.0 6.0 6.0 1.0 8.0 6.0 9.0 0.0 8.0 7.0 7.0 9.0 3.0 9.0 7.0 4.0 4.0 
5.0 4.0 9.0 6.0 6.0 9.0 9.0 4.0 6.0 10.0 10.0 2.0 3.0 3.0 7.0 6.0 9.0 10.0 3.0 3.0 3.0 4.0 7.0 10.0 0.0 0.0 7.0 6.0 0.0 5.0 2.0 0.0 6.0 4.0 4.0 4.0 1.0 8.0 5.0 7.0 8.0 3.0 8.0 2.0 5.0 6.0 0.0 4.0 8.0 1.0 3.0 0.0 7.0 6.0 8.0 2.0 2.0 4.0 8.0 4.0 7.0 8.0 5.0 5.0 6.0 7.0 9.0 2.0 3.0 0.0 9.0 8.0 7.0 10.0 4.0 6.0 -457.0 8.0 4.0 0.0 5.0 0.0 7.0 2.0 2.0 8.0 1.0 5.0 3.0 3.0 8.0 9.0 
7.0 9.0 0.0 6.0 1.0 1.0 2.0 2.0 3.0 3.0 8.0 1.0 1.0 8.0 10.0 0.0 4.0 10.0 3.0 3.0 10.0 10.0 10.0 2.0 6.0 5.0 4.0 2.0 0.0 3.0 8.0 10.0 9.0 1.0 6.0 5.0 5.0 2.0 0.0 2.0 2.0 2.0 4.0 5.0 9.0 9.0 0.0 5.0 2.0 7.0 3.0 6.0 0.0 0.0 1.0 9.0 10.0 1.0 5.0 9.0 3.0 1.0 8.0 10.0 10.0 4.0 6.0 1.0 1.0 3.0 4.0 10.0 8.0 4.0 4.0 6.0 8.0 -429.0 8.0 5.0 2.0 6.0 2.0 6.0 10.0 3.0 4.0 4.0 1.0 3.0 6.0 7.0 
2.0 2.0 10.0 9.0 4.0 3.0 4.0 4.0 10.0 0.0 4.0 5.0 7.0 8.0 2.0 1.0 9.0 2.0 9.0 9.0 9.0 4.0 6.0 2.0 6.0 2.0 2.0 8.0 5.0 7.0 6.0 3.0 4.0 7.0 5.0 8.0 0.0 9.0 8.0 8.0 9.0 1.0 9.0 8.0 1.0 7.0 2.0 3.0 9.0 1.0 2.0 5.0 6.0 0.0 9.0 0.0 5.0 0.0 10.0 2.0 2.0 1.0 4.0 10.0 10.0 2.0 6.0 8.0 4.0 9.0 2.0 10.0 1.0 3.0 6.0 1.0 4.0 8.0 -456.0 7.0 4.0 3.0 6.0 3.0 0.0 4.0 5.0 8.0 2.0 4.0 7.0 10.0 
8.0 4.0 7.0 7.0 5.0 5.0 7.0 3.0 5.0 5.0 0.0 6.0 0.0 10.0 4.0 1.0 0.0 3.0 6.0 0.0 4.0 6.0 2.0 7.0 2.0 9.0 5.0 4.0 7.0 3.0 1.0 2.0 7.0 1.0 1.0 4.0 1.0 1.0 1.0 8.0 7.0 7.0 9.0 0.0 3.0 2.0 9.0 1.0 5.0 9.0 10.0 0.0 6.0 3.0 4.0 2.0 7.0 5.0 4.0 10.0 4.0 0.0 3.0 0.0 6.0 1.0 3.0 9.0 1.0 4.0 8.0 2.0 9.0 2.0 3.0 8.0 0.0 5.0 7.0 -389.0 8.0 0.0 7.0 0.0 5.0 8.0 1.0 4.0 9.0 0.0 4.0 3.0 
4.0 9.0 3.0 6.0 3.0 3.0 3.0 10.0 4.0 10.0 8.0 0.0 0.0 8.0 1.0 9.0 0.0 6.0 1.0 10.0 5.0 9.0 6.0 7.0 10.0 8.0 7.0 8.0 4.0 0.0 8.0 8.0 8.0 7.0 5.0 0.0 0.0 6.0 7.0 2.0 7.0 3.0 2.0 5.0 8.0 4.0 8.0 5.0 6.0 9.0 5.0 4.0 0.0 4.0 4.0 3.0 0.0 5.0 3.0 3.0 3.0 9.0 3.0 8.0 0.0 1.0 6.0 3.0 6.0 4.0 9.0 5.0 2.0 1.0 2.0 6.0 5.0 2.0 4.0 8.0 -456.0 5.0 6.0 9.0 6.0 9.0 2.0 7.0 0.0 8.0 8.0 8.0 
5.0 7.0 3.0 10.0 9.0 5.0 5.0 3.0 9.0 6.0 10.0 8.0 1.0 3.0 8.0 10.0 9.0 10.0 7.0 3.0 7.0 10.0 2.0 9.0 2.0 3.0 4.0 10.0 4.0 9.0 9.0 6.0 2.0 6.0 2.0 4.0 9.0 6.0 0.0 2.0 8.0 6.0 7.0 10.0 4.0 6.0 1.0 8.0 6.0 0.0 4.0 6.0 8.0 5.0 7.0 9.0 5.0 4.0 5.0 3.0 7.0 10.0 1.0 0.0 8.0 9.0 5.0 9.0 1.0 3.0 7.0 5.0 10.0 10.0 10.0 9.0 0.0 6.0 3.0 0.0 5.0 -515.0 5.0 5.0 5.0 0.0 9.0 3.0 8.0 10.0 0.0 3.0 
8.0 8.0 0.0 4.0 9.0 9.0 8.0 6.0 3.0 10.0 7.0 1.0 4.0 1.0 2.0 7.0 9.0 9.0 5.0 1.0 7.0 6.0 0.0 3.0 9.0 0.0 6.0 1.0 8.0 0.0 8.0 6.0 7.0 1.0 1.0 10.0 3.0 9.0 3.0 8.0 10.0 4.0 9.0 3.0 4.0 1.0 3.0 4.0 9.0 5.0 6.0 5.0 10.0 7.0 3.0 4.0 2.0 2.0 7.0 0.0 5.0 7.0 2.0 3.0 7.0 6.0 8.0 3.0 9.0 10.0 1.0 7.0 7.0 5.0 2.0 0.0 7.0 2.0 6.0 7.0 6.0 5.0 -461.0 10.0 3.0 8.0 9.0 5.0 1.0 0.0 1.0 4.0 
3.0 0.0 1.0 10.0 6.0 9.0 3.0 10.0 5.0 2.0 0.0 3.0 9.0 5.0 10.0 0.0 0.0 10.0 4.0 0.0 6.0 10.0 7.0 0.0 6.0 8.0 10.0 4.0 10.0 6.0 1.0 3.0 10.0 9.0 2.0 10.0 4.0 10.0 2.0 9.0 0.0 9.0 3.0 9.0 5.0 6.0 9.0 0.0 0.0 0.0 5.0 7.0 3.0 4.0 8.0 2.0 7.0 3.0 6.0 3.0 2.0 9.0 1.0 10.0 3.0 9.0 3.0 10.0 5.0 8.0 6.0 5.0 3.0 4.0 1.0 8.0 2.0 6.0 3.0 0.0 9.0 5.0 10.0 -473.0 10.0 3.0 2.0 4.0 10.0 5.0 4.0 7.0 
9.0 0.0 1.0 5.0 8.0 6.0 8.0 7.0 8.0 3.0 8.0 5.0 6.0 0.0 4.0 4.0 10.0 5.0 0.0 8.0 5.0 7.0 3.0 3.0 1.0 9.0 9.0 5.0 7.0 8.0 6.0 4.0 1.0 7.0 0.0 2.0 8.0 0.0 8.0 8.0 9.0 9.0 7.0 10.0 8.0 9.0 9.0 0.0 10.0 4.0 9.0 10.0 7.0 8.0 9.0 5.0 4.0 2.0 6.0 1.0 6.0 8.0 6.0 2.0 9.0 2.0 0.0 5.0 5.0 0.0 1.0 4.0 4.0 8.0 0.0 7.0 2.0 10.0 0.0 5.0 6.0 5.0 3.0 10.0 -489.0 7.0 5.0 8.0 7.0 7.0 4.0 1.0 
5.0 0.0 7.0 0.0 10.0 10.0 2.0 9.0 10.0 3.0 6.0 9.0 1.0 7.0 7.0 6.0 1.0 3.0 4.0 4.0 1.0 4.0 4.0 3.0 0.0 2.0 9.0 1.0 6.0 2.0 0.0 9.0 1.0 2.0 7.0 5.0 10.0 6.0 3.0 10.0 8.0 2.0 4.0 2.0 3.0 6.0 4.0 4.0 7.0 4.0 7.0 10.0 1.0 8.0 0.0 4.0 10.0 4.0 8.0 3.0 0.0 2.0 2.0 4.0 1.0 5.0 5.0 2.0 1.0 1.0 6.0 1.0 0.0 6.0 2.0 7.0 8.0 3.0 4.0 8.0 9.0 0.0 8.0 3.0 7.0 -421.0 9.0 5.0 8.0 8.0 3.0 5.0 
8.0 0.0 3.0 0.0 7.0 0.0 3.0 6.0 8.0 10.0 1.0 3.0 7.0 7.0 6.0 4.0 9.0 2.0 3.0 1.0 6.0 8.0 5.0 1.0 2.0 1.0 5.0 5.0 7.0 1.0 5.0 3.0 9.0 8.0 6.0 8.0 10.0 5.0 8.0 3.0 6.0 10.0 5.0 9.0 5.0 7.0 10.0 3.0 0.0 3.0 6.0 8.0 5.0 9.0 8.0 8.0 5.0 6.0 0.0 5.0 0.0 8.0 8.0 1.0 9.0 4.0 1.0 4.0 9.0 9.0 7.0 9.0 7.0 4.0 7.0 9.0 1.0 4.0 5.0 1.0 2.0 9.0 9.0 2.0 5.0 9.0 -477.0 5.0 3.0 6.0 4.0 4.0 
10.0 0.0 6.0 5.0 3.0 1.0 3.0 1.0 9.0 6.0 2.0 10.0 2.0 10.0 8.0 6.0 6.0 10.0 5.0 3.0 2.0 10.0 8.0 10.0 5.0 1.0 2.0 0.0 9.0 0.0 0.0 7.0 2.0 9.0 4.0 4.0 1.0 4.0 4.0 10.0 1.0 10.0 0.0 0.0 4.0 4.0 7.0 5.0 9.0 9.0 2.0 9.0 4.0 4.0 6.0 6.0 8.0 9.0 2.0 1.0 9.0 4.0 0.0 0.0 5.0 7.0 10.0 1.0 3.0 9.0 9.0 9.0 2.0 9.0 5.0 3.0 5.0 4.0 8.0 4.0 7.0 3.0 5.0 4.0 8.0 5.0 5.0 -461.0 5.0 9.0 5.0 1.0 
6.0 0.0 4.0 4.0 3.0 8.0 4.0 9.0 10.0 6.0 8.0 3.0 6.0 5.0 1.0 10.0 6.0 6.0 0.0 5.0 0.0 8.0 7.0 8.0 9.0 7.0 10.0 0.0 0.0 1.0 4.0 10.0 1.0 2.0 4.0 1.0 5.0 7.0 1.0 0.0 10.0 9.0 2.0 6.0 3.0 7.0 9.0 4.0 8.0 3.0 5.0 0.0 2.0 9.0 5.0 9.0 3.0 8.0 8.0 0.0 0.0 8.0 4.0 2.0 1.0 4.0 6.0 0.0 0.0 2.0 3.0 7.0 3.0 5.0 1.0 9.0 3.0 1.0 2.0 9.0 0.0 8.0 1.0 10.0 7.0 8.0 3.0 5.0 -423.0 0.0 4.0 8.0 
7.0 0.0 9.0 2.0 2.0 8.0 7.0 5.0 7.0 9.0 9.0 4.0 7.0 10.0 1.0 7.0 10.0 5.0 9.0 7.0 3.0 10.0 1.0 0.0 8.0 0.0 2.0 3.0 5.0 7.0 1.0 8.0 7.0 3.0 0.0 8.0 1.0 1.0 6.0 4.0 8.0 8.0 8.0 5.0 9.0 7.0 6.0 1.0 6.0 1.0 2.0 10.0 1.0 3.0 0.0 4.0 4.0 10.0 3.0 5.0 3.0 10.0 8.0 4.0 1.0 4.0 1.0 4.0 1.0 4.0 0.0 5.0 4.0 5.0 0.0 7.0 3.0 3.0 4.0 0.0 8.0 10.0 0.0 5.0 7.0 8.0 6.0 9.0 0.0 -447.0 10.0 9.0 
2.0 0.0 4.0 8.0 6.0 3.0 9.0 6.0 9.0 7.0 1.0 8.0 1.0 8.0 8.0 4.0 1.0 10.0 2.0 7.0 2.0 5.0 2.0 10.0 7.0 9.0 1.0 4.0 2.0 9.0 6.0 10.0 3.0 8.0 3.0 7.0 4.0 3.0 4.0 8.0 0.0 2.0 8.0 8.0 10.0 8.0 3.0 10.0 5.0 3.0 1.0 3.0 9.0 5.0 10.0 8.0 7.0 0.0 0.0 4.0 9.0 4.0 6.0 1.0 0.0 6.0 4.0 0.0 0.0 8.0 0.0 0.0 0.0 8.0 2.0 4.0 8.0 6.0 7.0 4.0 8.0 0.0 1.0 4.0 4.0 3.0 4.0 5.0 4.0 10.0 -437.0 2.0 
7.0 0.0 9.0 8.0 8.0 5.0 6.0 6.0 2.0 6.0 1.0 7.0 1.0 4.0 8.0 3.0 10.0 4.0 1.0 3.0 0.0 7.0 9.0 0.0 7.0 7.0 1.0 3.0 8.0 1.0 2.0 9.0 2.0 4.0 6.0 5.0 6.0 4.0 4.0 8.0 0.0 7.0 6.0 10.0 2.0 1.0 0.0 0.0 2.0 2.0 2.0 4.0 6.0 1.0 7.0 8.0 3.0 2.0 2.0 9.0 3.0 2.0 3.0 10.0 10.0 9.0 1.0 5.0 9.0 1.0 8.0 4.0 6.0 1.0 5.0 4.0 9.0 7.0 10.0 3.0 8.0 3.0 4.0 7.0 1.0 5.0 4.0 1.0 8.0 9.0 2.0 -428.0 

